# Benzene RHF Opt Calculation
%pal nprocs 8 end
! RHF TightSCF PModel
! opt

* xyz 0 1
     C    0.000000000000     1.398696930758     0.000000000000
     C    0.000000000000    -1.398696930758     0.000000000000
     C    1.211265339156     0.699329968382     0.000000000000
     C    1.211265339156    -0.699329968382     0.000000000000
     C   -1.211265339156     0.699329968382     0.000000000000
     C   -1.211265339156    -0.699329968382     0.000000000000
     H    0.000000000000     2.491406946734     0.000000000000
     H    0.000000000000    -2.491406946734     0.000000000000
     H    2.157597486829     1.245660462400     0.000000000000
     H    2.157597486829    -1.245660462400     0.000000000000
     H   -2.157597486829     1.245660462400     0.000000000000
     H   -2.157597486829    -1.245660462400     0.000000000000
*

